Normalized Data/p04_1030_tsplib0_normalized_splitx10_0.vrp
NAME:p04_1030_tsplib0_NORMALIZED_splitx10_
BEST_KNOWN: 0
COMMENT: 0
DIMENSION: 536
CAPACITY: 1000
EDGE_WEIGHT_FORMAT: FUNCTION
EDGE_WEIGHT_TYPE: EXACT_2D
NODE_COORD_SECTION
1 0.00000 0.00000
2 2 17
3 2 17
4 2 17
5 2 17
6 14 14
7 14 14
8 14 14
9 14 14
10 17 29
11 17 29
12 17 29
13 17 29
14 17 29
15 -15 -9
16 -15 -9
17 5 -5
18 5 -5
19 5 -5
20 5 -5
21 5 -5
22 -14 12
23 -14 12
24 -14 12
25 -14 12
26 -18 28
27 -18 28
28 -18 28
29 -18 28
30 -18 28
31 -18 28
32 -4 27
33 -4 27
34 -4 27
35 17 -2
36 17 -2
37 17 -2
38 17 -2
39 17 -2
40 16 -14
41 7 6
42 7 6
43 7 6
44 -4 -3
45 -4 -3
46 -4 -3
47 -4 -3
48 -30 -10
49 -30 -10
50 -30 -10
51 -30 -10
52 -30 -10
53 -30 -10
54 -23 7
55 1 -19
56 1 -19
57 1 -19
58 1 -19
59 1 -19
60 17 6
61 17 6
62 -8 -12
63 -8 -12
64 -18 -2
65 -22 -22
66 -22 -22
67 -22 -22
68 -22 -22
69 22 23
70 27 7
71 27 7
72 27 7
73 7 22
74 7 22
75 7 22
76 -19 22
77 -19 22
78 -19 22
79 -19 22
80 -27 17
81 -27 17
82 -28 3
83 -28 3
84 -8 33
85 -8 33
86 -8 33
87 -8 33
88 -8 33
89 -5 13
90 8 32
91 8 32
92 23 13
93 23 13
94 23 13
95 23 13
96 23 -8
97 23 -8
98 23 -8
99 2 34
100 2 34
101 2 34
102 2 34
103 3 11
104 3 11
105 3 11
106 11 -25
107 11 -25
108 11 -25
109 26 -2
110 26 -2
111 26 -2
112 26 -2
113 26 -2
114 27 28
115 27 28
116 27 28
117 28 34
118 28 34
119 28 34
120 28 34
121 28 34
122 28 34
123 -3 -13
124 -3 -13
125 10 0
126 10 0
127 10 0
128 10 0
129 10 0
130 10 0
131 24 -20
132 24 -20
133 24 -20
134 24 -20
135 24 -20
136 24 -20
137 -30 -29
138 -30 -29
139 -30 -29
140 -25 -18
141 -25 -18
142 -25 -18
143 -25 -18
144 -14 -25
145 -14 -25
146 -30 29
147 -30 29
148 -30 29
149 -5 -20
150 -5 -20
151 -5 -20
152 -5 -20
153 4 -25
154 4 -25
155 4 -25
156 4 -25
157 -3 4
158 -3 4
159 -10 -3
160 -10 -3
161 -10 -3
162 -10 -3
163 -10 -3
164 -10 -3
165 -10 20
166 -10 20
167 -10 20
168 -10 20
169 -10 20
170 13 -7
171 13 -7
172 13 -7
173 21 2
174 21 2
175 21 2
176 6 14
177 6 14
178 6 14
179 6 14
180 0 -18
181 0 -18
182 0 -18
183 0 -18
184 20 10
185 20 10
186 20 -15
187 20 -15
188 20 -15
189 20 -15
190 20 -15
191 -20 -5
192 -20 -5
193 -20 -5
194 -20 -5
195 -20 -5
196 -10 -5
197 -10 -5
198 -10 -5
199 -10 -5
200 -10 -5
201 -15 15
202 -15 15
203 -15 15
204 -25 8
205 -25 8
206 -25 8
207 -25 8
208 -25 8
209 20 25
210 20 25
211 20 25
212 20 25
213 20 25
214 -5 25
215 -5 25
216 -5 25
217 -15 30
218 -15 30
219 -15 30
220 -15 30
221 15 0
222 15 0
223 -5 -10
224 -5 -10
225 -5 -10
226 -20 -25
227 -20 -25
228 -5 -30
229 -5 -30
230 -5 -30
231 -5 -30
232 -25 -15
233 -25 -15
234 -25 -15
235 -25 -15
236 -25 -15
237 -25 -15
238 -30 -5
239 -30 -5
240 -30 -5
241 -30 -5
242 -15 5
243 -15 5
244 -20 25
245 -20 25
246 -20 25
247 -20 25
248 -20 25
249 -20 25
250 10 30
251 10 30
252 10 30
253 10 30
254 10 -15
255 10 -15
256 10 -15
257 10 -15
258 10 -15
259 10 -25
260 10 -25
261 10 -25
262 10 -25
263 20 -30
264 20 -30
265 20 -30
266 30 0
267 30 0
268 30 0
269 30 0
270 30 0
271 30 0
272 30 -15
273 30 -15
274 10 -5
275 10 -5
276 10 -5
277 0 5
278 0 5
279 6 2
280 6 2
281 6 2
282 6 2
283 6 2
284 29 7
285 29 7
286 5 25
287 5 25
288 5 25
289 -4 17
290 -4 17
291 -4 17
292 -4 17
293 0 34
294 0 34
295 18 17
296 18 17
297 18 17
298 18 17
299 30 20
300 30 20
301 30 20
302 28 30
303 28 30
304 28 30
305 28 30
306 28 30
307 28 30
308 -33 25
309 -33 25
310 -15 -15
311 -15 -15
312 -15 -15
313 -15 -15
314 -15 -15
315 -15 -15
316 -30 -30
317 -30 -30
318 -30 -30
319 25 -23
320 25 -23
321 25 -23
322 25 -23
323 5 -10
324 5 -10
325 5 -10
326 7 -28
327 7 -28
328 7 -28
329 -11 -23
330 -11 -23
331 -12 -32
332 -12 -32
333 -12 -32
334 -12 -32
335 -24 -21
336 -24 -21
337 -24 -21
338 -24 -21
339 -24 -21
340 -29 3
341 -29 3
342 -29 3
343 -29 3
344 -33 13
345 -33 13
346 -27 21
347 -27 21
348 -22 17
349 -22 17
350 -22 17
351 -22 17
352 -22 17
353 -29 33
354 -29 33
355 12 12
356 12 12
357 12 12
358 14 23
359 14 23
360 14 23
361 14 23
362 -8 8
363 -8 8
364 2 -4
365 2 -4
366 22 -6
367 22 -6
368 22 -6
369 22 -6
370 22 -6
371 22 -6
372 28 -12
373 28 -12
374 28 -12
375 28 -12
376 28 -12
377 18 -23
378 18 -23
379 18 -23
380 18 -23
381 18 -23
382 -3 -23
383 -3 -23
384 1 -9
385 1 -9
386 -14 -11
387 -14 -11
388 -14 -11
389 -18 -1
390 -18 -1
391 -18 -1
392 -18 -1
393 -18 -1
394 -23 -11
395 -23 -11
396 -23 -11
397 -23 -11
398 -23 -11
399 -11 23
400 -11 23
401 -11 23
402 -11 23
403 -8 34
404 -20 42
405 -20 42
406 -20 42
407 27 42
408 27 42
409 27 42
410 27 42
411 14 38
412 14 38
413 14 38
414 14 38
415 32 -30
416 32 -30
417 32 -30
418 32 -30
419 21 4
420 21 4
421 21 4
422 2 12
423 2 12
424 2 21
425 2 21
426 2 21
427 2 21
428 2 21
429 22 33
430 22 33
431 22 33
432 12 -19
433 12 -19
434 12 -19
435 12 -19
436 12 -19
437 12 -19
438 9 -18
439 9 -18
440 11 -22
441 11 -22
442 11 -22
443 11 -22
444 14 -24
445 14 -24
446 14 -24
447 14 -24
448 14 7
449 18 8
450 18 8
451 18 8
452 18 8
453 18 8
454 18 8
455 26 17
456 26 17
457 26 17
458 26 17
459 26 17
460 26 17
461 22 13
462 22 13
463 22 13
464 22 13
465 21 2
466 21 2
467 21 2
468 21 2
469 21 2
470 21 2
471 20 19
472 20 19
473 20 19
474 -20 12
475 -20 12
476 -20 12
477 -21 2
478 -21 2
479 -24 -4
480 -24 -4
481 -24 -4
482 -24 -4
483 -24 -4
484 -19 -13
485 -19 -13
486 -31 -17
487 -31 -17
488 -7 -17
489 -7 -17
490 -9 17
491 -9 17
492 -9 17
493 -9 0
494 -9 0
495 -9 0
496 -4 32
497 -4 32
498 -4 32
499 -4 32
500 -4 32
501 -20 -16
502 -20 -16
503 -13 -13
504 -13 -13
505 -13 -13
506 -17 -11
507 -17 -11
508 -9 -8
509 -9 -8
510 -9 -8
511 -9 -8
512 -10 -11
513 -10 -11
514 -10 -11
515 -10 -11
516 -13 -8
517 -13 -8
518 -13 -8
519 -13 -8
520 -10 -14
521 -10 -14
522 -10 -14
523 -10 -14
524 -10 -14
525 -10 -14
526 -16 -14
527 -16 -14
528 -16 -14
529 -16 -14
530 -16 -14
531 -15 -9
532 -15 -9
533 -17 -17
534 -17 -17
535 -17 -17
536 -17 -17
DEMAND_SECTION
1 0
2 200
3 50
4 10
5 10
6 100
7 50
8 10
9 10
10 100
11 10
12 10
13 10
14 10
15 200
16 10
17 200
18 50
19 10
20 10
21 10
22 200
23 50
24 10
25 10
26 100
27 50
28 10
29 10
30 10
31 10
32 100
33 10
34 10
35 100
36 10
37 10
38 10
39 10
40 100
41 200
42 50
43 10
44 100
45 50
46 10
47 10
48 100
49 50
50 10
51 10
52 10
53 10
54 200
55 200
56 10
57 10
58 10
59 10
60 100
61 50
62 100
63 10
64 200
65 200
66 50
67 10
68 10
69 200
70 100
71 10
72 10
73 200
74 10
75 10
76 200
77 10
78 10
79 10
80 200
81 10
82 200
83 50
84 200
85 10
86 10
87 10
88 10
89 100
90 200
91 50
92 100
93 10
94 10
95 10
96 100
97 10
98 10
99 200
100 50
101 10
102 10
103 200
104 50
105 10
106 200
107 50
108 10
109 100
110 10
111 10
112 10
113 10
114 200
115 50
116 10
117 100
118 50
119 10
120 10
121 10
122 10
123 200
124 50
125 100
126 50
127 10
128 10
129 10
130 10
131 100
132 50
133 10
134 10
135 10
136 10
137 200
138 50
139 10
140 100
141 10
142 10
143 10
144 100
145 10
146 200
147 10
148 10
149 200
150 10
151 10
152 10
153 200
154 50
155 10
156 10
157 100
158 50
159 100
160 50
161 10
162 10
163 10
164 10
165 100
166 50
167 10
168 10
169 10
170 200
171 50
172 10
173 200
174 10
175 10
176 200
177 10
178 10
179 10
180 200
181 10
182 10
183 10
184 100
185 10
186 200
187 50
188 10
189 10
190 10
191 200
192 10
193 10
194 10
195 10
196 200
197 10
198 10
199 10
200 10
201 100
202 50
203 10
204 200
205 10
206 10
207 10
208 10
209 100
210 50
211 10
212 10
213 10
214 100
215 50
216 10
217 200
218 50
219 10
220 10
221 100
222 50
223 100
224 50
225 10
226 100
227 50
228 100
229 50
230 10
231 10
232 100
233 50
234 10
235 10
236 10
237 10
238 200
239 50
240 10
241 10
242 100
243 10
244 200
245 50
246 10
247 10
248 10
249 10
250 200
251 50
252 10
253 10
254 200
255 50
256 10
257 10
258 10
259 200
260 50
261 10
262 10
263 200
264 50
265 10
266 200
267 50
268 10
269 10
270 10
271 10
272 100
273 10
274 100
275 50
276 10
277 200
278 10
279 200
280 10
281 10
282 10
283 10
284 200
285 10
286 200
287 50
288 10
289 200
290 10
291 10
292 10
293 100
294 50
295 200
296 10
297 10
298 10
299 200
300 10
301 10
302 200
303 50
304 10
305 10
306 10
307 10
308 200
309 50
310 200
311 50
312 10
313 10
314 10
315 10
316 200
317 50
318 10
319 200
320 50
321 10
322 10
323 100
324 10
325 10
326 200
327 50
328 10
329 200
330 10
331 100
332 10
333 10
334 10
335 200
336 50
337 10
338 10
339 10
340 200
341 10
342 10
343 10
344 200
345 50
346 200
347 50
348 100
349 50
350 10
351 10
352 10
353 200
354 50
355 100
356 10
357 10
358 200
359 10
360 10
361 10
362 200
363 50
364 200
365 50
366 200
367 50
368 10
369 10
370 10
371 10
372 100
373 50
374 10
375 10
376 10
377 100
378 10
379 10
380 10
381 10
382 100
383 10
384 200
385 10
386 100
387 50
388 10
389 200
390 50
391 10
392 10
393 10
394 200
395 50
396 10
397 10
398 10
399 200
400 10
401 10
402 10
403 100
404 100
405 50
406 10
407 200
408 10
409 10
410 10
411 100
412 50
413 10
414 10
415 100
416 50
417 10
418 10
419 200
420 50
421 10
422 200
423 50
424 200
425 50
426 10
427 10
428 10
429 100
430 50
431 10
432 100
433 50
434 10
435 10
436 10
437 10
438 100
439 10
440 100
441 50
442 10
443 10
444 200
445 10
446 10
447 10
448 200
449 200
450 50
451 10
452 10
453 10
454 10
455 100
456 50
457 10
458 10
459 10
460 10
461 200
462 10
463 10
464 10
465 100
466 50
467 10
468 10
469 10
470 10
471 200
472 10
473 10
474 200
475 10
476 10
477 200
478 50
479 200
480 10
481 10
482 10
483 10
484 200
485 50
486 200
487 10
488 200
489 10
490 100
491 50
492 10
493 100
494 50
495 10
496 200
497 50
498 10
499 10
500 10
501 200
502 10
503 200
504 10
505 10
506 200
507 10
508 100
509 10
510 10
511 10
512 200
513 10
514 10
515 10
516 200
517 10
518 10
519 10
520 200
521 50
522 10
523 10
524 10
525 10
526 100
527 10
528 10
529 10
530 10
531 200
532 10
533 100
534 50
535 10
536 10
DEPOT_SECTION
1
-1
EOF