Normalized Data/p04_1030_tsplib0_normalized_splitx10_0.sol
535 -7 6 8 5 296 295 294 297 472 471 470 68 210 208 212 209 211 -17 20 19 18 16 364 363 -22 24 21 23 201 202 200 400 398 167 164 490 489 156 -32 33 31 496 499 498 497 495 402 85 86 84 87 83 214 215 213 289 290 291 157 -37 38 35 36 34 111 110 112 108 109 269 267 265 268 270 266 284 283 69 71 70 419 -39 132 131 130 135 134 133 319 321 320 318 414 415 417 416 264 262 263 -41 40 42 447 453 452 448 450 451 449 60 59 281 280 282 279 -44 43 45 46 -47 52 48 51 49 50 486 485 140 139 142 141 335 336 338 334 337 535 534 533 532 -62 61 512 511 514 513 523 519 524 522 521 520 488 487 222 224 223 -78 77 75 76 244 247 246 248 243 245 30 27 28 29 25 26 216 218 219 217 401 399 -82 81 342 340 339 341 239 240 238 237 478 479 480 481 482 -102 421 422 288 88 361 362 -103 104 2 4 3 1 425 423 72 74 73 177 176 175 178 -115 113 114 302 305 306 304 303 301 116 117 121 120 118 119 406 407 408 409 -123 122 181 180 182 179 54 56 58 55 57 384 383 -127 126 124 129 128 125 221 220 172 464 174 467 468 469 173 466 465 420 418 -151 148 150 149 381 382 228 230 227 229 333 331 330 332 144 143 328 329 -153 152 154 155 327 326 325 259 258 260 261 442 440 439 441 438 324 -163 160 162 158 159 161 192 194 193 191 190 63 388 392 493 494 492 -184 183 463 460 461 462 93 91 92 94 455 459 454 458 457 456 300 299 298 355 354 356 -189 188 187 185 186 271 272 372 373 371 375 374 96 97 95 368 367 370 369 365 366 -199 198 196 197 195 515 530 15 531 14 509 507 508 510 -225 226 317 316 315 137 138 136 64 66 67 65 314 313 311 504 503 -241 242 344 343 80 79 346 345 348 347 351 349 350 -249 252 250 251 413 410 412 411 428 429 430 11 9 12 13 10 357 359 360 358 -257 256 431 436 433 432 434 435 376 379 380 377 378 444 445 443 446 105 107 106 437 -276 277 -278 273 274 275 169 171 170 254 255 253 322 323 -286 287 285 90 89 100 101 99 98 292 293 424 427 426 -308 307 145 147 146 352 353 404 403 405 165 168 166 491 -387 386 385 505 506 526 529 527 528 525 310 309 312 502 -391 390 389 476 477 53 206 205 207 204 203 475 473 474 -393 396 394 397 395 234 235 236 232 231 233 500 501 483 484 516 518 517 0 





OBJ=
2051.929
BEST_KNOWN=
0.000